
Gurobi 7.0.2 (mac64, Python) logging started Fri Feb 23 14:45:58 2018

Changed value of parameter Outputflag to 1
   Prev: 0  Min: 0  Max: 1  Default: 1
Optimize a model with 101 rows, 173 columns and 651 nonzeros
Model has 1 quadratic constraint
Coefficient statistics:
  Matrix range     [3e-03, 1e+03]
  QMatrix range    [1e+00, 1e+00]
  Objective range  [3e-02, 1e+03]
  Bounds range     [4e-01, 1e+08]
  RHS range        [1e+00, 2e+04]
Presolve removed 21 rows and 54 columns
Presolve time: 0.00s
Presolved: 80 rows, 119 columns, 388 nonzeros
Presolved model has 1 second-order cone constraint
Ordering time: 0.00s

Barrier statistics:
 Free vars  : 1
 AA' NZ     : 1.074e+03
 Factor NZ  : 2.100e+03
 Factor Ops : 7.840e+04 (less than 1 second per iteration)
 Threads    : 1

                  Objective                Residual
Iter       Primal          Dual         Primal    Dual     Compl     Time
   0   7.87251530e+14 -3.10801243e+06  1.85e+09 4.66e+03  6.00e+12     0s
   1   2.77175413e+14 -8.90805465e+09  5.98e+08 6.00e+02  1.66e+12     0s
   2   7.08674925e+12  4.62131719e+10  1.48e+07 1.66e+02  4.73e+10     0s
   3   3.76816781e+11  1.35540757e+09  7.26e+05 4.58e+00  2.36e+09     0s
   4   1.24332049e+10 -7.85852487e+07  1.79e+04 4.31e-01  7.15e+07     0s
   5   1.31184987e+09 -1.83110856e+07  1.21e+02 6.58e-01  4.89e+06     0s
   6   5.71107064e+08 -1.43889951e+07  1.39e+00 7.17e-01  9.39e+05     0s
   7   4.48066521e+08 -8.26179086e+06  3.39e-01 7.25e-01  2.67e+05     0s
   8   4.39432893e+09 -7.21186411e+06  3.26e-01 6.72e-01  1.94e+06     0s
   9   2.47518985e+09 -9.94431595e+06  3.03e-01 6.06e-01  2.31e+06     0s
  10   1.52688051e+10 -6.28161700e+06  1.52e-01 4.01e-01  3.47e+07     0s
  11   3.20173704e+18 -3.18724703e+06  4.21e+18 4.78e+03  1.32e+21     0s

Barrier performed 11 iterations in 0.00 seconds
Numerical trouble encountered


Gurobi 7.0.2 (mac64, Python) logging started Fri Feb 23 14:46:11 2018

Changed value of parameter Outputflag to 1
   Prev: 0  Min: 0  Max: 1  Default: 1
Optimize a model with 101 rows, 173 columns and 651 nonzeros
Model has 1 quadratic constraint
Coefficient statistics:
  Matrix range     [3e-03, 1e+03]
  QMatrix range    [1e+00, 1e+00]
  Objective range  [3e-02, 1e+03]
  Bounds range     [4e-01, 1e+08]
  RHS range        [1e+00, 2e+04]
Presolve removed 21 rows and 54 columns
Presolve time: 0.00s
Presolved: 80 rows, 119 columns, 388 nonzeros
Presolved model has 1 second-order cone constraint
Ordering time: 0.00s

Barrier statistics:
 Free vars  : 1
 AA' NZ     : 1.074e+03
 Factor NZ  : 2.100e+03
 Factor Ops : 7.840e+04 (less than 1 second per iteration)
 Threads    : 1

                  Objective                Residual
Iter       Primal          Dual         Primal    Dual     Compl     Time
   0   7.87251530e+14 -3.10801243e+06  1.85e+09 4.66e+03  6.00e+12     0s
   1   2.77175413e+14 -8.90805465e+09  5.98e+08 6.00e+02  1.66e+12     0s
   2   7.08674925e+12  4.62131719e+10  1.48e+07 1.66e+02  4.73e+10     0s
   3   3.76816781e+11  1.35540757e+09  7.26e+05 4.58e+00  2.36e+09     0s
   4   1.24332049e+10 -7.85852487e+07  1.79e+04 4.31e-01  7.15e+07     0s
   5   1.31184987e+09 -1.83110856e+07  1.21e+02 6.58e-01  4.89e+06     0s
   6   5.71107064e+08 -1.43889951e+07  1.39e+00 7.17e-01  9.39e+05     0s
   7   4.48066521e+08 -8.26179086e+06  3.39e-01 7.25e-01  2.67e+05     0s
   8   4.39432893e+09 -7.21186411e+06  3.26e-01 6.72e-01  1.94e+06     0s
   9   2.47518985e+09 -9.94431595e+06  3.03e-01 6.06e-01  2.31e+06     0s
  10   1.52688051e+10 -6.28161700e+06  1.52e-01 4.01e-01  3.47e+07     0s
  11   3.20173704e+18 -3.18724703e+06  4.21e+18 4.78e+03  1.32e+21     0s

Barrier performed 11 iterations in 0.00 seconds
Numerical trouble encountered


Gurobi 7.0.2 (mac64) logging started Fri Feb 23 14:49:20 2018


Gurobi Optimizer version 7.0.2 build v7.0.2rc1 (mac64)
Copyright (c) 2017, Gurobi Optimization, Inc.

Read MPS format model from file subprob0.mps
Reading time = 0.00 seconds
Hydrovalley: 101 rows, 173 columns, 651 nonzeros
Optimize a model with 101 rows, 173 columns and 651 nonzeros
Model has 1 quadratic constraint
Coefficient statistics:
  Matrix range     [3e-03, 1e+03]
  QMatrix range    [1e+00, 1e+00]
  Objective range  [3e-02, 1e+03]
  Bounds range     [4e-01, 1e+08]
  RHS range        [1e+00, 2e+04]
Presolve removed 21 rows and 54 columns
Presolve time: 0.00s
Presolved: 80 rows, 119 columns, 388 nonzeros
Presolved model has 1 second-order cone constraint
Ordering time: 0.00s

Barrier statistics:
 Free vars  : 1
 AA' NZ     : 1.074e+03
 Factor NZ  : 2.100e+03
 Factor Ops : 7.840e+04 (less than 1 second per iteration)
 Threads    : 1

                  Objective                Residual
Iter       Primal          Dual         Primal    Dual     Compl     Time
   0   7.87251530e+14 -3.10801243e+06  1.85e+09 4.66e+03  6.00e+12     0s
   1   2.77175413e+14 -8.90805465e+09  5.98e+08 6.00e+02  1.66e+12     0s
   2   7.08674925e+12  4.62131719e+10  1.48e+07 1.66e+02  4.73e+10     0s
   3   3.76816781e+11  1.35540757e+09  7.26e+05 4.58e+00  2.36e+09     0s
   4   1.24332049e+10 -7.85852487e+07  1.79e+04 4.31e-01  7.15e+07     0s
   5   1.31184987e+09 -1.83110856e+07  1.21e+02 6.58e-01  4.89e+06     0s
   6   5.71107064e+08 -1.43889951e+07  1.39e+00 7.17e-01  9.39e+05     0s
   7   4.48066521e+08 -8.26179086e+06  3.39e-01 7.25e-01  2.67e+05     0s
   8   4.39432893e+09 -7.21186411e+06  3.26e-01 6.72e-01  1.94e+06     0s
   9   2.47518985e+09 -9.94431595e+06  3.03e-01 6.06e-01  2.31e+06     0s
  10   1.52688051e+10 -6.28161700e+06  1.52e-01 4.01e-01  3.47e+07     0s
  11   3.20173705e+18 -3.18724703e+06  4.21e+18 4.78e+03  1.32e+21     0s

Barrier performed 11 iterations in 0.00 seconds
Numerical trouble encountered


Gurobi 7.0.2 (mac64) logging started Fri Feb 23 14:51:15 2018


Gurobi Optimizer version 7.0.2 build v7.0.2rc1 (mac64)
Copyright (c) 2017, Gurobi Optimization, Inc.

Read MPS format model from file subprob0.mps
Reading time = 0.00 seconds
Hydrovalley: 101 rows, 173 columns, 651 nonzeros
Optimize a model with 101 rows, 173 columns and 651 nonzeros
Model has 1 quadratic constraint
Coefficient statistics:
  Matrix range     [3e-03, 1e+03]
  QMatrix range    [1e+00, 1e+00]
  Objective range  [3e-02, 1e+03]
  Bounds range     [4e-01, 1e+08]
  RHS range        [1e+00, 2e+04]
Presolve removed 21 rows and 54 columns
Presolve time: 0.00s
Presolved: 80 rows, 119 columns, 388 nonzeros
Presolved model has 1 second-order cone constraint
Ordering time: 0.00s

Barrier statistics:
 Free vars  : 1
 AA' NZ     : 1.074e+03
 Factor NZ  : 2.100e+03
 Factor Ops : 7.840e+04 (less than 1 second per iteration)
 Threads    : 1

                  Objective                Residual
Iter       Primal          Dual         Primal    Dual     Compl     Time
   0   7.87251530e+14 -3.10801243e+06  1.85e+09 4.66e+03  6.00e+12     0s
   1   2.77175413e+14 -8.90805465e+09  5.98e+08 6.00e+02  1.66e+12     0s
   2   7.08674925e+12  4.62131719e+10  1.48e+07 1.66e+02  4.73e+10     0s
   3   3.76816781e+11  1.35540757e+09  7.26e+05 4.58e+00  2.36e+09     0s
   4   1.24332049e+10 -7.85852487e+07  1.79e+04 4.31e-01  7.15e+07     0s
   5   1.31184987e+09 -1.83110856e+07  1.21e+02 6.58e-01  4.89e+06     0s
   6   5.71107064e+08 -1.43889951e+07  1.39e+00 7.17e-01  9.39e+05     0s
   7   4.48066521e+08 -8.26179086e+06  3.39e-01 7.25e-01  2.67e+05     0s
   8   4.39432893e+09 -7.21186411e+06  3.26e-01 6.72e-01  1.94e+06     0s
   9   2.47518985e+09 -9.94431595e+06  3.03e-01 6.06e-01  2.31e+06     0s
  10   1.52688051e+10 -6.28161700e+06  1.52e-01 4.01e-01  3.47e+07     0s
  11   3.20173705e+18 -3.18724703e+06  4.21e+18 4.78e+03  1.32e+21     0s

Barrier performed 11 iterations in 0.01 seconds
Numerical trouble encountered


Gurobi 7.0.2 (mac64) logging started Fri Feb 23 14:54:13 2018


Gurobi 7.0.2 (mac64, Python) logging started Fri Feb 23 14:54:56 2018

Changed value of parameter Outputflag to 1
   Prev: 0  Min: 0  Max: 1  Default: 1
Optimize a model with 101 rows, 173 columns and 651 nonzeros
Model has 1 quadratic constraint
Coefficient statistics:
  Matrix range     [3e-03, 1e+03]
  QMatrix range    [1e+00, 1e+00]
  Objective range  [3e-02, 1e+03]
  Bounds range     [4e-01, 1e+08]
  RHS range        [1e+00, 2e+04]
Presolve removed 21 rows and 54 columns
Presolve time: 0.00s
Presolved: 80 rows, 119 columns, 388 nonzeros
Presolved model has 1 second-order cone constraint
Ordering time: 0.00s

Barrier statistics:
 Free vars  : 1
 AA' NZ     : 1.074e+03
 Factor NZ  : 2.100e+03
 Factor Ops : 7.840e+04 (less than 1 second per iteration)
 Threads    : 1

                  Objective                Residual
Iter       Primal          Dual         Primal    Dual     Compl     Time
   0   7.87251530e+14 -3.10801243e+06  1.85e+09 4.66e+03  6.00e+12     0s
   1   2.77175413e+14 -8.90805465e+09  5.98e+08 6.00e+02  1.66e+12     0s
   2   7.08674925e+12  4.62131719e+10  1.48e+07 1.66e+02  4.73e+10     0s
   3   3.76816781e+11  1.35540757e+09  7.26e+05 4.58e+00  2.36e+09     0s
   4   1.24332049e+10 -7.85852487e+07  1.79e+04 4.31e-01  7.15e+07     0s
   5   1.31184987e+09 -1.83110856e+07  1.21e+02 6.58e-01  4.89e+06     0s
   6   5.71107064e+08 -1.43889951e+07  1.39e+00 7.17e-01  9.39e+05     0s
   7   4.48066521e+08 -8.26179086e+06  3.39e-01 7.25e-01  2.67e+05     0s
   8   4.39432893e+09 -7.21186411e+06  3.26e-01 6.72e-01  1.94e+06     0s
   9   2.47518985e+09 -9.94431595e+06  3.03e-01 6.06e-01  2.31e+06     0s
  10   1.52688051e+10 -6.28161700e+06  1.52e-01 4.01e-01  3.47e+07     0s
  11   3.20173704e+18 -3.18724703e+06  4.21e+18 4.78e+03  1.32e+21     0s

Barrier performed 11 iterations in 0.00 seconds
Numerical trouble encountered


Gurobi 7.5.2 (mac64) logging started Fri Feb 23 14:58:45 2018

Academic license - for non-commercial use only

Gurobi Optimizer version 7.5.2 build v7.5.2rc1 (mac64)
Copyright (c) 2017, Gurobi Optimization, Inc.

Read MPS format model from file subprob0.mps
Reading time = 0.00 seconds
Hydrovalley: 101 rows, 173 columns, 651 nonzeros
Optimize a model with 101 rows, 173 columns and 651 nonzeros
Model has 1 quadratic constraint
Coefficient statistics:
  Matrix range     [3e-03, 1e+03]
  QMatrix range    [1e+00, 1e+00]
  Objective range  [3e-02, 1e+03]
  Bounds range     [4e-01, 1e+08]
  RHS range        [1e+00, 2e+04]
Presolve removed 21 rows and 54 columns
Presolve time: 0.00s
Presolved: 80 rows, 119 columns, 388 nonzeros
Presolved model has 1 second-order cone constraint
Ordering time: 0.00s

Barrier statistics:
 Free vars  : 1
 AA' NZ     : 1.074e+03
 Factor NZ  : 2.100e+03
 Factor Ops : 7.840e+04 (less than 1 second per iteration)
 Threads    : 1

                  Objective                Residual
Iter       Primal          Dual         Primal    Dual     Compl     Time
   0   1.51391786e+12 -1.73124973e+06  4.74e+07 2.56e+02  1.15e+10     0s
   1   3.86973944e+11  1.87063206e+09  1.10e+07 2.25e+01  2.41e+09     0s
   2   4.91548392e+10  2.77178134e+08  1.37e+06 1.35e+01  2.99e+08     0s
   3   3.85714187e+09 -3.10010084e+07  1.01e+05 1.15e+00  2.19e+07     0s
   4   1.85432697e+08 -1.00754319e+07  5.28e+02 5.76e+00  4.25e+05     0s
   5   9.23407166e+07 -1.13353855e+07  5.50e+01 3.52e+00  2.70e+05     0s
   6   5.19505919e+07 -7.55926946e+05  8.60e-02 5.57e+00  2.34e+04     0s
   7   2.95960191e+08 -6.17462183e+05  7.58e-02 4.27e+00  4.09e+05     0s
   8   5.38475445e+08 -4.63993105e+05  4.39e-02 3.23e+00  1.22e+06     0s
   9   4.25652157e+08 -2.74490913e+05  3.02e-02 1.81e+00  1.48e+06     0s
  10   3.22296619e+08 -1.56796019e+05  1.79e-02 9.97e-01  1.34e+06     0s
  11   2.00869165e+08 -9.12330429e+04  1.03e-02 5.61e-01  9.13e+05     0s
  12   2.20251534e+06 -2.19597819e+04  1.59e-05 8.53e-03  1.12e+04     0s
  13   1.06379741e+05 -9.63722524e+03  6.18e-06 4.59e-04  5.83e+02     0s
  14   5.17059657e+03 -3.86137012e+03  1.86e-09 2.16e-04  4.54e+01     0s
  15   7.38815052e+02 -2.84544508e+03  1.86e-09 1.49e-04  1.80e+01     0s
  16  -1.67804430e+03 -2.21826418e+03  1.86e-09 3.40e-05  2.71e+00     0s
  17  -1.79908121e+03 -1.90134961e+03  1.86e-09 7.44e-06  5.14e-01     0s
  18  -1.80988899e+03 -1.83562040e+03  1.86e-09 1.96e-06  1.29e-01     0s
  19  -1.81675750e+03 -1.81780449e+03  1.86e-09 9.43e-08  5.26e-03     0s
  20  -1.81707767e+03 -1.81716001e+03  1.86e-09 7.53e-09  4.14e-04     0s
  21  -1.81708805e+03 -1.81709606e+03  1.86e-09 7.89e-10  4.02e-05     0s
  22  -1.81708970e+03 -1.81709025e+03  1.86e-09 3.01e-11  2.74e-06     0s
  23  -1.81708983e+03 -1.81708997e+03  1.86e-09 2.60e-12  7.38e-07     0s

Barrier solved model in 23 iterations and 0.01 seconds
Optimal objective -1.81708983e+03


Gurobi 7.5.2 (mac64) logging started Fri Feb 23 14:59:03 2018

Academic license - for non-commercial use only

Gurobi Optimizer version 7.5.2 build v7.5.2rc1 (mac64)
Copyright (c) 2017, Gurobi Optimization, Inc.

Read MPS format model from file subprob0.mps
Reading time = 0.00 seconds
Hydrovalley: 101 rows, 173 columns, 651 nonzeros
Optimize a model with 101 rows, 173 columns and 651 nonzeros
Model has 1 quadratic constraint
Coefficient statistics:
  Matrix range     [3e-03, 1e+03]
  QMatrix range    [1e+00, 1e+00]
  Objective range  [3e-02, 1e+03]
  Bounds range     [4e-01, 1e+08]
  RHS range        [1e+00, 2e+04]
Presolve removed 21 rows and 54 columns
Presolve time: 0.00s
Presolved: 80 rows, 119 columns, 388 nonzeros
Presolved model has 1 second-order cone constraint
Ordering time: 0.00s

Barrier statistics:
 Free vars  : 1
 AA' NZ     : 1.074e+03
 Factor NZ  : 2.100e+03
 Factor Ops : 7.840e+04 (less than 1 second per iteration)
 Threads    : 1

                  Objective                Residual
Iter       Primal          Dual         Primal    Dual     Compl     Time
   0   1.51391786e+12 -1.73124973e+06  4.74e+07 2.56e+02  1.15e+10     0s
   1   3.86973944e+11  1.87063206e+09  1.10e+07 2.25e+01  2.41e+09     0s
   2   4.91548392e+10  2.77178134e+08  1.37e+06 1.35e+01  2.99e+08     0s
   3   3.85714187e+09 -3.10010084e+07  1.01e+05 1.15e+00  2.19e+07     0s
   4   1.85432697e+08 -1.00754319e+07  5.28e+02 5.76e+00  4.25e+05     0s
   5   9.23407166e+07 -1.13353855e+07  5.50e+01 3.52e+00  2.70e+05     0s
   6   5.19505919e+07 -7.55926946e+05  8.60e-02 5.57e+00  2.34e+04     0s
   7   2.95960191e+08 -6.17462183e+05  7.58e-02 4.27e+00  4.09e+05     0s
   8   5.38475445e+08 -4.63993105e+05  4.39e-02 3.23e+00  1.22e+06     0s
   9   4.25652157e+08 -2.74490913e+05  3.02e-02 1.81e+00  1.48e+06     0s
  10   3.22296619e+08 -1.56796019e+05  1.79e-02 9.97e-01  1.34e+06     0s
  11   2.00869165e+08 -9.12330429e+04  1.03e-02 5.61e-01  9.13e+05     0s
  12   2.20251534e+06 -2.19597819e+04  1.59e-05 8.53e-03  1.12e+04     0s
  13   1.06379741e+05 -9.63722524e+03  6.18e-06 4.59e-04  5.83e+02     0s
  14   5.17059657e+03 -3.86137012e+03  1.86e-09 2.16e-04  4.54e+01     0s
  15   7.38815052e+02 -2.84544508e+03  1.86e-09 1.49e-04  1.80e+01     0s
  16  -1.67804430e+03 -2.21826418e+03  1.86e-09 3.40e-05  2.71e+00     0s
  17  -1.79908121e+03 -1.90134961e+03  1.86e-09 7.44e-06  5.14e-01     0s
  18  -1.80988899e+03 -1.83562040e+03  1.86e-09 1.96e-06  1.29e-01     0s
  19  -1.81675750e+03 -1.81780449e+03  1.86e-09 9.43e-08  5.26e-03     0s
  20  -1.81707767e+03 -1.81716001e+03  1.86e-09 7.53e-09  4.14e-04     0s
  21  -1.81708805e+03 -1.81709606e+03  1.86e-09 7.89e-10  4.02e-05     0s
  22  -1.81708970e+03 -1.81709025e+03  1.86e-09 3.01e-11  2.74e-06     0s
  23  -1.81708983e+03 -1.81708997e+03  1.86e-09 2.60e-12  7.38e-07     0s

Barrier solved model in 23 iterations and 0.01 seconds
Optimal objective -1.81708983e+03


Gurobi 7.5.2 (mac64, Python) logging started Fri Feb 23 18:12:21 2018

Academic license - for non-commercial use only
Changed value of parameter Outputflag to 1
   Prev: 0  Min: 0  Max: 1  Default: 1
Optimize a model with 251 rows, 173 columns and 1641 nonzeros
Model has 1 quadratic constraint
Coefficient statistics:
  Matrix range     [3e-03, 1e+03]
  QMatrix range    [1e+00, 1e+00]
  Objective range  [3e-02, 1e+03]
  Bounds range     [4e-01, 1e+08]
  RHS range        [1e+00, 2e+04]
Presolve removed 60 rows and 54 columns
Presolve time: 0.00s
Presolved: 191 rows, 119 columns, 850 nonzeros
Presolved model has 1 second-order cone constraint
Ordering time: 0.00s

Barrier statistics:
 Dense cols : 4
 Free vars  : 1
 AA' NZ     : 1.864e+03
 Factor NZ  : 3.113e+03
 Factor Ops : 8.283e+04 (less than 1 second per iteration)
 Threads    : 1

                  Objective                Residual
Iter       Primal          Dual         Primal    Dual     Compl     Time
   0   1.47122954e+12 -1.09007004e+06  4.61e+07 1.61e+02  7.34e+09     0s
   1   3.48836669e+11 -3.99322468e+08  9.62e+06 1.61e+01  1.38e+09     0s
   2   5.76609460e+10  2.73983685e+07  1.65e+06 1.06e+01  2.22e+08     0s
   3   3.22612534e+09 -1.27473156e+07  8.37e+04 8.17e-01  1.15e+07     0s
   4   1.76225217e+08 -4.14139055e+06  5.99e+02 5.63e+00  2.67e+05     0s
   5   7.05266597e+07 -1.89915159e+06  8.41e+00 5.26e+00  3.93e+04     0s
   6   3.28373130e+07 -5.02346674e+04  2.85e-04 5.81e+00  2.28e+03     0s
   7   1.92627628e+08 -4.85791134e+04  2.76e-04 5.57e+00  3.02e+04     0s
   8   3.81129808e+09 -4.71679029e+04  2.49e-04 5.43e+00  8.71e+05     0s
   9   8.45157822e+10 -3.07984573e+04  5.05e-04 3.97e+00  8.76e+07     0s
  10   2.06592773e+11 -1.32714269e+04  1.18e-02 3.10e+00  3.13e+08     0s
  11   3.45870359e+18 -6.75000000e+06  5.63e+17 1.00e+03  1.90e+20     0s

Barrier performed 11 iterations in 0.00 seconds
Numerical trouble encountered


Gurobi 7.5.2 (mac64, Python) logging started Fri Feb 23 18:13:50 2018

Academic license - for non-commercial use only
Changed value of parameter Outputflag to 1
   Prev: 0  Min: 0  Max: 1  Default: 1
Optimize a model with 251 rows, 173 columns and 1641 nonzeros
Model has 1 quadratic constraint
Coefficient statistics:
  Matrix range     [3e-03, 1e+03]
  QMatrix range    [1e+00, 1e+00]
  Objective range  [3e-02, 1e+03]
  Bounds range     [4e-01, 1e+08]
  RHS range        [1e+00, 2e+04]
Presolve removed 60 rows and 54 columns
Presolve time: 0.00s
Presolved: 191 rows, 119 columns, 850 nonzeros
Presolved model has 1 second-order cone constraint
Ordering time: 0.00s

Barrier statistics:
 Dense cols : 4
 Free vars  : 1
 AA' NZ     : 1.864e+03
 Factor NZ  : 3.113e+03
 Factor Ops : 8.283e+04 (less than 1 second per iteration)
 Threads    : 1

                  Objective                Residual
Iter       Primal          Dual         Primal    Dual     Compl     Time
   0   1.47122954e+12 -1.09007004e+06  4.61e+07 1.61e+02  7.34e+09     0s
   1   3.48836669e+11 -3.99322468e+08  9.62e+06 1.61e+01  1.38e+09     0s
   2   5.76609460e+10  2.73983685e+07  1.65e+06 1.06e+01  2.22e+08     0s
   3   3.22612534e+09 -1.27473156e+07  8.37e+04 8.17e-01  1.15e+07     0s
   4   1.76225217e+08 -4.14139055e+06  5.99e+02 5.63e+00  2.67e+05     0s
   5   7.05266597e+07 -1.89915159e+06  8.41e+00 5.26e+00  3.93e+04     0s
   6   3.28373130e+07 -5.02346674e+04  2.85e-04 5.81e+00  2.28e+03     0s
   7   1.92627628e+08 -4.85791134e+04  2.76e-04 5.57e+00  3.02e+04     0s
   8   3.81129808e+09 -4.71679029e+04  2.49e-04 5.43e+00  8.71e+05     0s
   9   8.45157822e+10 -3.07984573e+04  5.05e-04 3.97e+00  8.76e+07     0s
  10   2.06592773e+11 -1.32714269e+04  1.18e-02 3.10e+00  3.13e+08     0s
  11   3.45870359e+18 -6.75000000e+06  5.63e+17 1.00e+03  1.90e+20     0s

Barrier performed 11 iterations in 0.00 seconds
Numerical trouble encountered


Gurobi 7.5.2 (mac64, Python) logging started Fri Feb 23 18:14:14 2018

Academic license - for non-commercial use only
Changed value of parameter Outputflag to 1
   Prev: 0  Min: 0  Max: 1  Default: 1
Optimize a model with 251 rows, 173 columns and 1641 nonzeros
Model has 1 quadratic constraint
Coefficient statistics:
  Matrix range     [3e-03, 1e+03]
  QMatrix range    [1e+00, 1e+00]
  Objective range  [3e-02, 1e+03]
  Bounds range     [4e-01, 1e+08]
  RHS range        [1e+00, 2e+04]
Presolve removed 60 rows and 54 columns
Presolve time: 0.00s
Presolved: 191 rows, 119 columns, 850 nonzeros
Presolved model has 1 second-order cone constraint
Ordering time: 0.00s

Barrier statistics:
 Dense cols : 4
 Free vars  : 1
 AA' NZ     : 1.864e+03
 Factor NZ  : 3.113e+03
 Factor Ops : 8.283e+04 (less than 1 second per iteration)
 Threads    : 1

                  Objective                Residual
Iter       Primal          Dual         Primal    Dual     Compl     Time
   0   1.47122954e+12 -1.09007004e+06  4.61e+07 1.61e+02  7.34e+09     0s
   1   3.48836669e+11 -3.99322468e+08  9.62e+06 1.61e+01  1.38e+09     0s
   2   5.76609460e+10  2.73983685e+07  1.65e+06 1.06e+01  2.22e+08     0s
   3   3.22612534e+09 -1.27473156e+07  8.37e+04 8.17e-01  1.15e+07     0s
   4   1.76225217e+08 -4.14139055e+06  5.99e+02 5.63e+00  2.67e+05     0s
   5   7.05266597e+07 -1.89915159e+06  8.41e+00 5.26e+00  3.93e+04     0s
   6   3.28373130e+07 -5.02346674e+04  2.85e-04 5.81e+00  2.28e+03     0s
   7   1.92627628e+08 -4.85791134e+04  2.76e-04 5.57e+00  3.02e+04     0s
   8   3.81129808e+09 -4.71679029e+04  2.49e-04 5.43e+00  8.71e+05     0s
   9   8.45157822e+10 -3.07984573e+04  5.05e-04 3.97e+00  8.76e+07     0s
  10   2.06592773e+11 -1.32714269e+04  1.18e-02 3.10e+00  3.13e+08     0s
  11   3.45870359e+18 -6.75000000e+06  5.63e+17 1.00e+03  1.90e+20     0s

Barrier performed 11 iterations in 0.00 seconds
Numerical trouble encountered


Gurobi 7.5.2 (mac64, Python) logging started Fri Feb 23 18:14:25 2018

Academic license - for non-commercial use only
Changed value of parameter Outputflag to 1
   Prev: 0  Min: 0  Max: 1  Default: 1
Optimize a model with 251 rows, 173 columns and 1641 nonzeros
Model has 1 quadratic constraint
Coefficient statistics:
  Matrix range     [3e-03, 1e+03]
  QMatrix range    [1e+00, 1e+00]
  Objective range  [3e-02, 1e+03]
  Bounds range     [4e-01, 1e+08]
  RHS range        [1e+00, 2e+04]
Presolve removed 60 rows and 54 columns
Presolve time: 0.00s
Presolved: 191 rows, 119 columns, 850 nonzeros
Presolved model has 1 second-order cone constraint
Ordering time: 0.00s

Barrier statistics:
 Dense cols : 4
 Free vars  : 1
 AA' NZ     : 1.864e+03
 Factor NZ  : 3.113e+03
 Factor Ops : 8.283e+04 (less than 1 second per iteration)
 Threads    : 1

                  Objective                Residual
Iter       Primal          Dual         Primal    Dual     Compl     Time
   0   1.47122954e+12 -1.09007004e+06  4.61e+07 1.61e+02  7.34e+09     0s
   1   3.48836669e+11 -3.99322468e+08  9.62e+06 1.61e+01  1.38e+09     0s
   2   5.76609460e+10  2.73983685e+07  1.65e+06 1.06e+01  2.22e+08     0s
   3   3.22612534e+09 -1.27473156e+07  8.37e+04 8.17e-01  1.15e+07     0s
   4   1.76225217e+08 -4.14139055e+06  5.99e+02 5.63e+00  2.67e+05     0s
   5   7.05266597e+07 -1.89915159e+06  8.41e+00 5.26e+00  3.93e+04     0s
   6   3.28373130e+07 -5.02346674e+04  2.85e-04 5.81e+00  2.28e+03     0s
   7   1.92627628e+08 -4.85791134e+04  2.76e-04 5.57e+00  3.02e+04     0s
   8   3.81129808e+09 -4.71679029e+04  2.49e-04 5.43e+00  8.71e+05     0s
   9   8.45157822e+10 -3.07984573e+04  5.05e-04 3.97e+00  8.76e+07     0s
  10   2.06592773e+11 -1.32714269e+04  1.18e-02 3.10e+00  3.13e+08     0s
  11   3.45870359e+18 -6.75000000e+06  5.63e+17 1.00e+03  1.90e+20     0s

Barrier performed 11 iterations in 0.01 seconds
Numerical trouble encountered


Gurobi 7.5.2 (mac64, Python) logging started Fri Feb 23 18:14:32 2018

Academic license - for non-commercial use only
Changed value of parameter Outputflag to 1
   Prev: 0  Min: 0  Max: 1  Default: 1
Optimize a model with 251 rows, 173 columns and 1641 nonzeros
Model has 1 quadratic constraint
Coefficient statistics:
  Matrix range     [3e-03, 1e+03]
  QMatrix range    [1e+00, 1e+00]
  Objective range  [3e-02, 1e+03]
  Bounds range     [4e-01, 1e+08]
  RHS range        [1e+00, 2e+04]
Presolve removed 60 rows and 54 columns
Presolve time: 0.00s
Presolved: 191 rows, 119 columns, 850 nonzeros
Presolved model has 1 second-order cone constraint
Ordering time: 0.00s

Barrier statistics:
 Dense cols : 4
 Free vars  : 1
 AA' NZ     : 1.864e+03
 Factor NZ  : 3.113e+03
 Factor Ops : 8.283e+04 (less than 1 second per iteration)
 Threads    : 1

                  Objective                Residual
Iter       Primal          Dual         Primal    Dual     Compl     Time
   0   1.47122954e+12 -1.09007004e+06  4.61e+07 1.61e+02  7.34e+09     0s
   1   3.48836669e+11 -3.99322468e+08  9.62e+06 1.61e+01  1.38e+09     0s
   2   5.76609460e+10  2.73983685e+07  1.65e+06 1.06e+01  2.22e+08     0s
   3   3.22612534e+09 -1.27473156e+07  8.37e+04 8.17e-01  1.15e+07     0s
   4   1.76225217e+08 -4.14139055e+06  5.99e+02 5.63e+00  2.67e+05     0s
   5   7.05266597e+07 -1.89915159e+06  8.41e+00 5.26e+00  3.93e+04     0s
   6   3.28373130e+07 -5.02346674e+04  2.85e-04 5.81e+00  2.28e+03     0s
   7   1.92627628e+08 -4.85791134e+04  2.76e-04 5.57e+00  3.02e+04     0s
   8   3.81129808e+09 -4.71679029e+04  2.49e-04 5.43e+00  8.71e+05     0s
   9   8.45157822e+10 -3.07984573e+04  5.05e-04 3.97e+00  8.76e+07     0s
  10   2.06592773e+11 -1.32714269e+04  1.18e-02 3.10e+00  3.13e+08     0s
  11   3.45870359e+18 -6.75000000e+06  5.63e+17 1.00e+03  1.90e+20     0s

Barrier performed 11 iterations in 0.00 seconds
Numerical trouble encountered


Gurobi 7.5.2 (mac64, Python) logging started Fri Feb 23 18:16:42 2018

Academic license - for non-commercial use only

Gurobi 7.5.2 (mac64, Python) logging started Fri Feb 23 18:17:12 2018

Academic license - for non-commercial use only

Gurobi 7.5.2 (mac64, Python) logging started Fri Feb 23 18:20:39 2018

Academic license - for non-commercial use only

Gurobi 7.5.2 (mac64, Python) logging started Fri Feb 23 18:21:01 2018

Academic license - for non-commercial use only

Gurobi 7.5.2 (mac64, Python) logging started Fri Feb 23 18:25:12 2018

Academic license - for non-commercial use only

Gurobi 7.5.2 (mac64, Python) logging started Fri Feb 23 18:27:05 2018

Academic license - for non-commercial use only

Gurobi 7.5.2 (mac64, Python) logging started Fri Feb 23 18:27:36 2018

Academic license - for non-commercial use only

Gurobi 7.5.2 (mac64, Python) logging started Fri Feb 23 18:28:21 2018

Academic license - for non-commercial use only

Gurobi 7.5.2 (mac64, Python) logging started Fri Feb 23 18:31:38 2018

Academic license - for non-commercial use only

Gurobi 7.5.2 (mac64, Python) logging started Fri Feb 23 18:31:58 2018

Academic license - for non-commercial use only

Gurobi 7.5.2 (mac64, Python) logging started Sat Feb 24 10:18:22 2018

Academic license - for non-commercial use only

Gurobi 7.5.2 (mac64, Python) logging started Sat Feb 24 10:18:40 2018

Academic license - for non-commercial use only

Gurobi 7.5.2 (mac64, Python) logging started Sat Feb 24 10:19:50 2018

Academic license - for non-commercial use only

Gurobi 7.5.2 (mac64, Python) logging started Sat Feb 24 10:20:20 2018

Academic license - for non-commercial use only

Gurobi 7.5.2 (mac64, Python) logging started Sat Feb 24 10:20:32 2018

Academic license - for non-commercial use only

Gurobi 7.5.2 (mac64, Python) logging started Sat Feb 24 10:21:17 2018

Academic license - for non-commercial use only

Gurobi 7.5.2 (mac64, Python) logging started Sat Feb 24 10:22:00 2018

Academic license - for non-commercial use only

Gurobi 7.5.2 (mac64, Python) logging started Sat Feb 24 10:22:54 2018

Academic license - for non-commercial use only

Gurobi 7.5.2 (mac64, Python) logging started Sat Feb 24 10:26:21 2018

Academic license - for non-commercial use only

Gurobi 7.5.2 (mac64, Python) logging started Sat Feb 24 10:27:09 2018

Academic license - for non-commercial use only

Gurobi 7.5.2 (mac64, Python) logging started Sat Feb 24 10:27:36 2018

Academic license - for non-commercial use only

Gurobi 7.5.2 (mac64, Python) logging started Sat Feb 24 10:28:31 2018

Academic license - for non-commercial use only

Gurobi 7.5.2 (mac64, Python) logging started Sat Feb 24 10:29:06 2018

Academic license - for non-commercial use only

Gurobi 7.5.2 (mac64, Python) logging started Sat Feb 24 10:30:31 2018

Academic license - for non-commercial use only

Gurobi 7.5.2 (mac64, Python) logging started Sat Feb 24 10:39:20 2018

Academic license - for non-commercial use only

Gurobi 7.5.2 (mac64, Python) logging started Sat Feb 24 10:41:03 2018

Academic license - for non-commercial use only

Gurobi 7.5.2 (mac64, Python) logging started Sat Feb 24 10:43:35 2018

Academic license - for non-commercial use only

Gurobi 7.5.2 (mac64, Python) logging started Sat Feb 24 10:43:55 2018

Academic license - for non-commercial use only

Gurobi 7.5.2 (mac64, Python) logging started Sat Feb 24 10:44:17 2018

Academic license - for non-commercial use only

Gurobi 7.5.2 (mac64, Python) logging started Sat Feb 24 10:44:42 2018

Academic license - for non-commercial use only

Gurobi 7.5.2 (mac64, Python) logging started Sat Feb 24 10:44:52 2018

Academic license - for non-commercial use only

Gurobi 7.5.2 (mac64, Python) logging started Sat Feb 24 10:45:36 2018

Academic license - for non-commercial use only

Gurobi 7.5.2 (mac64, Python) logging started Sat Feb 24 10:47:43 2018

Academic license - for non-commercial use only

Gurobi 7.5.2 (mac64, Python) logging started Sat Feb 24 10:48:23 2018

Academic license - for non-commercial use only

Gurobi 7.5.2 (mac64, Python) logging started Sat Feb 24 10:49:27 2018

Academic license - for non-commercial use only

Gurobi 7.5.2 (mac64, Python) logging started Sat Feb 24 10:50:38 2018

Academic license - for non-commercial use only

Gurobi 7.5.2 (mac64, Python) logging started Sat Feb 24 10:51:05 2018

Academic license - for non-commercial use only

Gurobi 7.5.2 (mac64, Python) logging started Sat Feb 24 10:53:32 2018

Academic license - for non-commercial use only

Gurobi 7.5.2 (mac64, Python) logging started Sat Feb 24 11:13:05 2018

Academic license - for non-commercial use only

Gurobi 7.5.2 (mac64, Python) logging started Sat Feb 24 11:14:31 2018

Academic license - for non-commercial use only

Gurobi 7.5.2 (mac64, Python) logging started Sat Feb 24 11:18:16 2018

Academic license - for non-commercial use only

Gurobi 7.5.2 (mac64, Python) logging started Sat Feb 24 11:21:25 2018

Academic license - for non-commercial use only

Gurobi 7.5.2 (mac64, Python) logging started Sat Feb 24 11:21:44 2018

Academic license - for non-commercial use only

Gurobi 7.5.2 (mac64, Python) logging started Sat Feb 24 11:22:02 2018

Academic license - for non-commercial use only

Gurobi 7.5.2 (mac64, Python) logging started Sat Feb 24 11:22:16 2018

Academic license - for non-commercial use only

Gurobi 7.5.2 (mac64, Python) logging started Sat Feb 24 11:28:15 2018

Academic license - for non-commercial use only

Gurobi 7.5.2 (mac64, Python) logging started Sat Feb 24 11:29:46 2018

Academic license - for non-commercial use only

Gurobi 7.5.2 (mac64, Python) logging started Wed Feb 28 21:19:26 2018

Academic license - for non-commercial use only

Gurobi 7.5.2 (mac64, Python) logging started Wed Feb 28 21:21:24 2018

Academic license - for non-commercial use only

Gurobi 7.5.2 (mac64, Python) logging started Thu Mar  1 14:03:05 2018

Academic license - for non-commercial use only

Gurobi 7.5.2 (mac64, Python) logging started Thu Mar  1 15:55:00 2018

Academic license - for non-commercial use only

Gurobi 7.5.2 (mac64, Python) logging started Thu Mar  1 16:07:52 2018

Academic license - for non-commercial use only

Gurobi 7.5.2 (mac64, Python) logging started Thu Mar  1 16:11:52 2018

Academic license - for non-commercial use only

Gurobi 7.5.2 (mac64, Python) logging started Thu Mar  1 16:12:48 2018

Academic license - for non-commercial use only

Gurobi 7.5.2 (mac64, Python) logging started Thu Mar  1 16:26:55 2018

Academic license - for non-commercial use only

Gurobi 7.5.2 (mac64, Python) logging started Thu Mar  1 16:35:23 2018

Academic license - for non-commercial use only

Gurobi 7.5.2 (mac64, Python) logging started Thu Mar  1 16:35:43 2018

Academic license - for non-commercial use only

Gurobi 7.5.2 (mac64, Python) logging started Thu Mar  1 16:35:55 2018

Academic license - for non-commercial use only

Gurobi 7.5.2 (mac64, Python) logging started Thu Mar  1 16:37:34 2018

Academic license - for non-commercial use only

Gurobi 7.5.2 (mac64, Python) logging started Thu Mar  1 16:40:16 2018

Academic license - for non-commercial use only

Gurobi 7.5.2 (mac64, Python) logging started Thu Mar  1 16:43:41 2018

Academic license - for non-commercial use only

Gurobi 7.5.2 (mac64, Python) logging started Thu Mar  1 16:43:56 2018

Academic license - for non-commercial use only

Gurobi 7.5.2 (mac64, Python) logging started Thu Mar  1 16:44:39 2018

Academic license - for non-commercial use only

Gurobi 7.5.2 (mac64, Python) logging started Thu Mar  1 17:03:57 2018

Academic license - for non-commercial use only

Gurobi 7.5.2 (mac64, Python) logging started Thu Mar  1 17:05:07 2018

Academic license - for non-commercial use only

Gurobi 7.5.2 (mac64, Python) logging started Thu Mar  1 17:05:38 2018

Academic license - for non-commercial use only

Gurobi 7.5.2 (mac64, Python) logging started Thu Mar  1 17:06:12 2018

Academic license - for non-commercial use only
